c *********************************
c * Circuit generated by BenCGen
c *
c * RippleCarryAdder_117_117_117_InOutT
c *
c * Ports with 1 gate(s): 1
c * Ports with 2 gate(s): 586
c * Total gates: 587
c *********************************
p cnf 821 1994
1 354 0
-1 -354 0
1 -353 0
354 -353 0
-1 -354 353 0
1 118 -356 0
-1 118 356 0
1 -118 356 0
-1 -118 -356 0
356 353 -235 0
-356 353 235 0
356 -353 235 0
-356 -353 -235 0
353 -357 0
356 -357 0
-353 -356 357 0
118 -358 0
1 -358 0
-118 -1 358 0
-357 355 0
-358 355 0
357 358 -355 0
2 119 -360 0
-2 119 360 0
2 -119 360 0
-2 -119 -360 0
360 355 -236 0
-360 355 236 0
360 -355 236 0
-360 -355 -236 0
355 -361 0
360 -361 0
-355 -360 361 0
119 -362 0
2 -362 0
-119 -2 362 0
-361 359 0
-362 359 0
361 362 -359 0
3 120 -364 0
-3 120 364 0
3 -120 364 0
-3 -120 -364 0
364 359 -237 0
-364 359 237 0
364 -359 237 0
-364 -359 -237 0
359 -365 0
364 -365 0
-359 -364 365 0
120 -366 0
3 -366 0
-120 -3 366 0
-365 363 0
-366 363 0
365 366 -363 0
4 121 -368 0
-4 121 368 0
4 -121 368 0
-4 -121 -368 0
368 363 -238 0
-368 363 238 0
368 -363 238 0
-368 -363 -238 0
363 -369 0
368 -369 0
-363 -368 369 0
121 -370 0
4 -370 0
-121 -4 370 0
-369 367 0
-370 367 0
369 370 -367 0
5 122 -372 0
-5 122 372 0
5 -122 372 0
-5 -122 -372 0
372 367 -239 0
-372 367 239 0
372 -367 239 0
-372 -367 -239 0
367 -373 0
372 -373 0
-367 -372 373 0
122 -374 0
5 -374 0
-122 -5 374 0
-373 371 0
-374 371 0
373 374 -371 0
6 123 -376 0
-6 123 376 0
6 -123 376 0
-6 -123 -376 0
376 371 -240 0
-376 371 240 0
376 -371 240 0
-376 -371 -240 0
371 -377 0
376 -377 0
-371 -376 377 0
123 -378 0
6 -378 0
-123 -6 378 0
-377 375 0
-378 375 0
377 378 -375 0
7 124 -380 0
-7 124 380 0
7 -124 380 0
-7 -124 -380 0
380 375 -241 0
-380 375 241 0
380 -375 241 0
-380 -375 -241 0
375 -381 0
380 -381 0
-375 -380 381 0
124 -382 0
7 -382 0
-124 -7 382 0
-381 379 0
-382 379 0
381 382 -379 0
8 125 -384 0
-8 125 384 0
8 -125 384 0
-8 -125 -384 0
384 379 -242 0
-384 379 242 0
384 -379 242 0
-384 -379 -242 0
379 -385 0
384 -385 0
-379 -384 385 0
125 -386 0
8 -386 0
-125 -8 386 0
-385 383 0
-386 383 0
385 386 -383 0
9 126 -388 0
-9 126 388 0
9 -126 388 0
-9 -126 -388 0
388 383 -243 0
-388 383 243 0
388 -383 243 0
-388 -383 -243 0
383 -389 0
388 -389 0
-383 -388 389 0
126 -390 0
9 -390 0
-126 -9 390 0
-389 387 0
-390 387 0
389 390 -387 0
10 127 -392 0
-10 127 392 0
10 -127 392 0
-10 -127 -392 0
392 387 -244 0
-392 387 244 0
392 -387 244 0
-392 -387 -244 0
387 -393 0
392 -393 0
-387 -392 393 0
127 -394 0
10 -394 0
-127 -10 394 0
-393 391 0
-394 391 0
393 394 -391 0
11 128 -396 0
-11 128 396 0
11 -128 396 0
-11 -128 -396 0
396 391 -245 0
-396 391 245 0
396 -391 245 0
-396 -391 -245 0
391 -397 0
396 -397 0
-391 -396 397 0
128 -398 0
11 -398 0
-128 -11 398 0
-397 395 0
-398 395 0
397 398 -395 0
12 129 -400 0
-12 129 400 0
12 -129 400 0
-12 -129 -400 0
400 395 -246 0
-400 395 246 0
400 -395 246 0
-400 -395 -246 0
395 -401 0
400 -401 0
-395 -400 401 0
129 -402 0
12 -402 0
-129 -12 402 0
-401 399 0
-402 399 0
401 402 -399 0
13 130 -404 0
-13 130 404 0
13 -130 404 0
-13 -130 -404 0
404 399 -247 0
-404 399 247 0
404 -399 247 0
-404 -399 -247 0
399 -405 0
404 -405 0
-399 -404 405 0
130 -406 0
13 -406 0
-130 -13 406 0
-405 403 0
-406 403 0
405 406 -403 0
14 131 -408 0
-14 131 408 0
14 -131 408 0
-14 -131 -408 0
408 403 -248 0
-408 403 248 0
408 -403 248 0
-408 -403 -248 0
403 -409 0
408 -409 0
-403 -408 409 0
131 -410 0
14 -410 0
-131 -14 410 0
-409 407 0
-410 407 0
409 410 -407 0
15 132 -412 0
-15 132 412 0
15 -132 412 0
-15 -132 -412 0
412 407 -249 0
-412 407 249 0
412 -407 249 0
-412 -407 -249 0
407 -413 0
412 -413 0
-407 -412 413 0
132 -414 0
15 -414 0
-132 -15 414 0
-413 411 0
-414 411 0
413 414 -411 0
16 133 -416 0
-16 133 416 0
16 -133 416 0
-16 -133 -416 0
416 411 -250 0
-416 411 250 0
416 -411 250 0
-416 -411 -250 0
411 -417 0
416 -417 0
-411 -416 417 0
133 -418 0
16 -418 0
-133 -16 418 0
-417 415 0
-418 415 0
417 418 -415 0
17 134 -420 0
-17 134 420 0
17 -134 420 0
-17 -134 -420 0
420 415 -251 0
-420 415 251 0
420 -415 251 0
-420 -415 -251 0
415 -421 0
420 -421 0
-415 -420 421 0
134 -422 0
17 -422 0
-134 -17 422 0
-421 419 0
-422 419 0
421 422 -419 0
18 135 -424 0
-18 135 424 0
18 -135 424 0
-18 -135 -424 0
424 419 -252 0
-424 419 252 0
424 -419 252 0
-424 -419 -252 0
419 -425 0
424 -425 0
-419 -424 425 0
135 -426 0
18 -426 0
-135 -18 426 0
-425 423 0
-426 423 0
425 426 -423 0
19 136 -428 0
-19 136 428 0
19 -136 428 0
-19 -136 -428 0
428 423 -253 0
-428 423 253 0
428 -423 253 0
-428 -423 -253 0
423 -429 0
428 -429 0
-423 -428 429 0
136 -430 0
19 -430 0
-136 -19 430 0
-429 427 0
-430 427 0
429 430 -427 0
20 137 -432 0
-20 137 432 0
20 -137 432 0
-20 -137 -432 0
432 427 -254 0
-432 427 254 0
432 -427 254 0
-432 -427 -254 0
427 -433 0
432 -433 0
-427 -432 433 0
137 -434 0
20 -434 0
-137 -20 434 0
-433 431 0
-434 431 0
433 434 -431 0
21 138 -436 0
-21 138 436 0
21 -138 436 0
-21 -138 -436 0
436 431 -255 0
-436 431 255 0
436 -431 255 0
-436 -431 -255 0
431 -437 0
436 -437 0
-431 -436 437 0
138 -438 0
21 -438 0
-138 -21 438 0
-437 435 0
-438 435 0
437 438 -435 0
22 139 -440 0
-22 139 440 0
22 -139 440 0
-22 -139 -440 0
440 435 -256 0
-440 435 256 0
440 -435 256 0
-440 -435 -256 0
435 -441 0
440 -441 0
-435 -440 441 0
139 -442 0
22 -442 0
-139 -22 442 0
-441 439 0
-442 439 0
441 442 -439 0
23 140 -444 0
-23 140 444 0
23 -140 444 0
-23 -140 -444 0
444 439 -257 0
-444 439 257 0
444 -439 257 0
-444 -439 -257 0
439 -445 0
444 -445 0
-439 -444 445 0
140 -446 0
23 -446 0
-140 -23 446 0
-445 443 0
-446 443 0
445 446 -443 0
24 141 -448 0
-24 141 448 0
24 -141 448 0
-24 -141 -448 0
448 443 -258 0
-448 443 258 0
448 -443 258 0
-448 -443 -258 0
443 -449 0
448 -449 0
-443 -448 449 0
141 -450 0
24 -450 0
-141 -24 450 0
-449 447 0
-450 447 0
449 450 -447 0
25 142 -452 0
-25 142 452 0
25 -142 452 0
-25 -142 -452 0
452 447 -259 0
-452 447 259 0
452 -447 259 0
-452 -447 -259 0
447 -453 0
452 -453 0
-447 -452 453 0
142 -454 0
25 -454 0
-142 -25 454 0
-453 451 0
-454 451 0
453 454 -451 0
26 143 -456 0
-26 143 456 0
26 -143 456 0
-26 -143 -456 0
456 451 -260 0
-456 451 260 0
456 -451 260 0
-456 -451 -260 0
451 -457 0
456 -457 0
-451 -456 457 0
143 -458 0
26 -458 0
-143 -26 458 0
-457 455 0
-458 455 0
457 458 -455 0
27 144 -460 0
-27 144 460 0
27 -144 460 0
-27 -144 -460 0
460 455 -261 0
-460 455 261 0
460 -455 261 0
-460 -455 -261 0
455 -461 0
460 -461 0
-455 -460 461 0
144 -462 0
27 -462 0
-144 -27 462 0
-461 459 0
-462 459 0
461 462 -459 0
28 145 -464 0
-28 145 464 0
28 -145 464 0
-28 -145 -464 0
464 459 -262 0
-464 459 262 0
464 -459 262 0
-464 -459 -262 0
459 -465 0
464 -465 0
-459 -464 465 0
145 -466 0
28 -466 0
-145 -28 466 0
-465 463 0
-466 463 0
465 466 -463 0
29 146 -468 0
-29 146 468 0
29 -146 468 0
-29 -146 -468 0
468 463 -263 0
-468 463 263 0
468 -463 263 0
-468 -463 -263 0
463 -469 0
468 -469 0
-463 -468 469 0
146 -470 0
29 -470 0
-146 -29 470 0
-469 467 0
-470 467 0
469 470 -467 0
30 147 -472 0
-30 147 472 0
30 -147 472 0
-30 -147 -472 0
472 467 -264 0
-472 467 264 0
472 -467 264 0
-472 -467 -264 0
467 -473 0
472 -473 0
-467 -472 473 0
147 -474 0
30 -474 0
-147 -30 474 0
-473 471 0
-474 471 0
473 474 -471 0
31 148 -476 0
-31 148 476 0
31 -148 476 0
-31 -148 -476 0
476 471 -265 0
-476 471 265 0
476 -471 265 0
-476 -471 -265 0
471 -477 0
476 -477 0
-471 -476 477 0
148 -478 0
31 -478 0
-148 -31 478 0
-477 475 0
-478 475 0
477 478 -475 0
32 149 -480 0
-32 149 480 0
32 -149 480 0
-32 -149 -480 0
480 475 -266 0
-480 475 266 0
480 -475 266 0
-480 -475 -266 0
475 -481 0
480 -481 0
-475 -480 481 0
149 -482 0
32 -482 0
-149 -32 482 0
-481 479 0
-482 479 0
481 482 -479 0
33 150 -484 0
-33 150 484 0
33 -150 484 0
-33 -150 -484 0
484 479 -267 0
-484 479 267 0
484 -479 267 0
-484 -479 -267 0
479 -485 0
484 -485 0
-479 -484 485 0
150 -486 0
33 -486 0
-150 -33 486 0
-485 483 0
-486 483 0
485 486 -483 0
34 151 -488 0
-34 151 488 0
34 -151 488 0
-34 -151 -488 0
488 483 -268 0
-488 483 268 0
488 -483 268 0
-488 -483 -268 0
483 -489 0
488 -489 0
-483 -488 489 0
151 -490 0
34 -490 0
-151 -34 490 0
-489 487 0
-490 487 0
489 490 -487 0
35 152 -492 0
-35 152 492 0
35 -152 492 0
-35 -152 -492 0
492 487 -269 0
-492 487 269 0
492 -487 269 0
-492 -487 -269 0
487 -493 0
492 -493 0
-487 -492 493 0
152 -494 0
35 -494 0
-152 -35 494 0
-493 491 0
-494 491 0
493 494 -491 0
36 153 -496 0
-36 153 496 0
36 -153 496 0
-36 -153 -496 0
496 491 -270 0
-496 491 270 0
496 -491 270 0
-496 -491 -270 0
491 -497 0
496 -497 0
-491 -496 497 0
153 -498 0
36 -498 0
-153 -36 498 0
-497 495 0
-498 495 0
497 498 -495 0
37 154 -500 0
-37 154 500 0
37 -154 500 0
-37 -154 -500 0
500 495 -271 0
-500 495 271 0
500 -495 271 0
-500 -495 -271 0
495 -501 0
500 -501 0
-495 -500 501 0
154 -502 0
37 -502 0
-154 -37 502 0
-501 499 0
-502 499 0
501 502 -499 0
38 155 -504 0
-38 155 504 0
38 -155 504 0
-38 -155 -504 0
504 499 -272 0
-504 499 272 0
504 -499 272 0
-504 -499 -272 0
499 -505 0
504 -505 0
-499 -504 505 0
155 -506 0
38 -506 0
-155 -38 506 0
-505 503 0
-506 503 0
505 506 -503 0
39 156 -508 0
-39 156 508 0
39 -156 508 0
-39 -156 -508 0
508 503 -273 0
-508 503 273 0
508 -503 273 0
-508 -503 -273 0
503 -509 0
508 -509 0
-503 -508 509 0
156 -510 0
39 -510 0
-156 -39 510 0
-509 507 0
-510 507 0
509 510 -507 0
40 157 -512 0
-40 157 512 0
40 -157 512 0
-40 -157 -512 0
512 507 -274 0
-512 507 274 0
512 -507 274 0
-512 -507 -274 0
507 -513 0
512 -513 0
-507 -512 513 0
157 -514 0
40 -514 0
-157 -40 514 0
-513 511 0
-514 511 0
513 514 -511 0
41 158 -516 0
-41 158 516 0
41 -158 516 0
-41 -158 -516 0
516 511 -275 0
-516 511 275 0
516 -511 275 0
-516 -511 -275 0
511 -517 0
516 -517 0
-511 -516 517 0
158 -518 0
41 -518 0
-158 -41 518 0
-517 515 0
-518 515 0
517 518 -515 0
42 159 -520 0
-42 159 520 0
42 -159 520 0
-42 -159 -520 0
520 515 -276 0
-520 515 276 0
520 -515 276 0
-520 -515 -276 0
515 -521 0
520 -521 0
-515 -520 521 0
159 -522 0
42 -522 0
-159 -42 522 0
-521 519 0
-522 519 0
521 522 -519 0
43 160 -524 0
-43 160 524 0
43 -160 524 0
-43 -160 -524 0
524 519 -277 0
-524 519 277 0
524 -519 277 0
-524 -519 -277 0
519 -525 0
524 -525 0
-519 -524 525 0
160 -526 0
43 -526 0
-160 -43 526 0
-525 523 0
-526 523 0
525 526 -523 0
44 161 -528 0
-44 161 528 0
44 -161 528 0
-44 -161 -528 0
528 523 -278 0
-528 523 278 0
528 -523 278 0
-528 -523 -278 0
523 -529 0
528 -529 0
-523 -528 529 0
161 -530 0
44 -530 0
-161 -44 530 0
-529 527 0
-530 527 0
529 530 -527 0
45 162 -532 0
-45 162 532 0
45 -162 532 0
-45 -162 -532 0
532 527 -279 0
-532 527 279 0
532 -527 279 0
-532 -527 -279 0
527 -533 0
532 -533 0
-527 -532 533 0
162 -534 0
45 -534 0
-162 -45 534 0
-533 531 0
-534 531 0
533 534 -531 0
46 163 -536 0
-46 163 536 0
46 -163 536 0
-46 -163 -536 0
536 531 -280 0
-536 531 280 0
536 -531 280 0
-536 -531 -280 0
531 -537 0
536 -537 0
-531 -536 537 0
163 -538 0
46 -538 0
-163 -46 538 0
-537 535 0
-538 535 0
537 538 -535 0
47 164 -540 0
-47 164 540 0
47 -164 540 0
-47 -164 -540 0
540 535 -281 0
-540 535 281 0
540 -535 281 0
-540 -535 -281 0
535 -541 0
540 -541 0
-535 -540 541 0
164 -542 0
47 -542 0
-164 -47 542 0
-541 539 0
-542 539 0
541 542 -539 0
48 165 -544 0
-48 165 544 0
48 -165 544 0
-48 -165 -544 0
544 539 -282 0
-544 539 282 0
544 -539 282 0
-544 -539 -282 0
539 -545 0
544 -545 0
-539 -544 545 0
165 -546 0
48 -546 0
-165 -48 546 0
-545 543 0
-546 543 0
545 546 -543 0
49 166 -548 0
-49 166 548 0
49 -166 548 0
-49 -166 -548 0
548 543 -283 0
-548 543 283 0
548 -543 283 0
-548 -543 -283 0
543 -549 0
548 -549 0
-543 -548 549 0
166 -550 0
49 -550 0
-166 -49 550 0
-549 547 0
-550 547 0
549 550 -547 0
50 167 -552 0
-50 167 552 0
50 -167 552 0
-50 -167 -552 0
552 547 -284 0
-552 547 284 0
552 -547 284 0
-552 -547 -284 0
547 -553 0
552 -553 0
-547 -552 553 0
167 -554 0
50 -554 0
-167 -50 554 0
-553 551 0
-554 551 0
553 554 -551 0
51 168 -556 0
-51 168 556 0
51 -168 556 0
-51 -168 -556 0
556 551 -285 0
-556 551 285 0
556 -551 285 0
-556 -551 -285 0
551 -557 0
556 -557 0
-551 -556 557 0
168 -558 0
51 -558 0
-168 -51 558 0
-557 555 0
-558 555 0
557 558 -555 0
52 169 -560 0
-52 169 560 0
52 -169 560 0
-52 -169 -560 0
560 555 -286 0
-560 555 286 0
560 -555 286 0
-560 -555 -286 0
555 -561 0
560 -561 0
-555 -560 561 0
169 -562 0
52 -562 0
-169 -52 562 0
-561 559 0
-562 559 0
561 562 -559 0
53 170 -564 0
-53 170 564 0
53 -170 564 0
-53 -170 -564 0
564 559 -287 0
-564 559 287 0
564 -559 287 0
-564 -559 -287 0
559 -565 0
564 -565 0
-559 -564 565 0
170 -566 0
53 -566 0
-170 -53 566 0
-565 563 0
-566 563 0
565 566 -563 0
54 171 -568 0
-54 171 568 0
54 -171 568 0
-54 -171 -568 0
568 563 -288 0
-568 563 288 0
568 -563 288 0
-568 -563 -288 0
563 -569 0
568 -569 0
-563 -568 569 0
171 -570 0
54 -570 0
-171 -54 570 0
-569 567 0
-570 567 0
569 570 -567 0
55 172 -572 0
-55 172 572 0
55 -172 572 0
-55 -172 -572 0
572 567 -289 0
-572 567 289 0
572 -567 289 0
-572 -567 -289 0
567 -573 0
572 -573 0
-567 -572 573 0
172 -574 0
55 -574 0
-172 -55 574 0
-573 571 0
-574 571 0
573 574 -571 0
56 173 -576 0
-56 173 576 0
56 -173 576 0
-56 -173 -576 0
576 571 -290 0
-576 571 290 0
576 -571 290 0
-576 -571 -290 0
571 -577 0
576 -577 0
-571 -576 577 0
173 -578 0
56 -578 0
-173 -56 578 0
-577 575 0
-578 575 0
577 578 -575 0
57 174 -580 0
-57 174 580 0
57 -174 580 0
-57 -174 -580 0
580 575 -291 0
-580 575 291 0
580 -575 291 0
-580 -575 -291 0
575 -581 0
580 -581 0
-575 -580 581 0
174 -582 0
57 -582 0
-174 -57 582 0
-581 579 0
-582 579 0
581 582 -579 0
58 175 -584 0
-58 175 584 0
58 -175 584 0
-58 -175 -584 0
584 579 -292 0
-584 579 292 0
584 -579 292 0
-584 -579 -292 0
579 -585 0
584 -585 0
-579 -584 585 0
175 -586 0
58 -586 0
-175 -58 586 0
-585 583 0
-586 583 0
585 586 -583 0
59 176 -588 0
-59 176 588 0
59 -176 588 0
-59 -176 -588 0
588 583 -293 0
-588 583 293 0
588 -583 293 0
-588 -583 -293 0
583 -589 0
588 -589 0
-583 -588 589 0
176 -590 0
59 -590 0
-176 -59 590 0
-589 587 0
-590 587 0
589 590 -587 0
60 177 -592 0
-60 177 592 0
60 -177 592 0
-60 -177 -592 0
592 587 -294 0
-592 587 294 0
592 -587 294 0
-592 -587 -294 0
587 -593 0
592 -593 0
-587 -592 593 0
177 -594 0
60 -594 0
-177 -60 594 0
-593 591 0
-594 591 0
593 594 -591 0
61 178 -596 0
-61 178 596 0
61 -178 596 0
-61 -178 -596 0
596 591 -295 0
-596 591 295 0
596 -591 295 0
-596 -591 -295 0
591 -597 0
596 -597 0
-591 -596 597 0
178 -598 0
61 -598 0
-178 -61 598 0
-597 595 0
-598 595 0
597 598 -595 0
62 179 -600 0
-62 179 600 0
62 -179 600 0
-62 -179 -600 0
600 595 -296 0
-600 595 296 0
600 -595 296 0
-600 -595 -296 0
595 -601 0
600 -601 0
-595 -600 601 0
179 -602 0
62 -602 0
-179 -62 602 0
-601 599 0
-602 599 0
601 602 -599 0
63 180 -604 0
-63 180 604 0
63 -180 604 0
-63 -180 -604 0
604 599 -297 0
-604 599 297 0
604 -599 297 0
-604 -599 -297 0
599 -605 0
604 -605 0
-599 -604 605 0
180 -606 0
63 -606 0
-180 -63 606 0
-605 603 0
-606 603 0
605 606 -603 0
64 181 -608 0
-64 181 608 0
64 -181 608 0
-64 -181 -608 0
608 603 -298 0
-608 603 298 0
608 -603 298 0
-608 -603 -298 0
603 -609 0
608 -609 0
-603 -608 609 0
181 -610 0
64 -610 0
-181 -64 610 0
-609 607 0
-610 607 0
609 610 -607 0
65 182 -612 0
-65 182 612 0
65 -182 612 0
-65 -182 -612 0
612 607 -299 0
-612 607 299 0
612 -607 299 0
-612 -607 -299 0
607 -613 0
612 -613 0
-607 -612 613 0
182 -614 0
65 -614 0
-182 -65 614 0
-613 611 0
-614 611 0
613 614 -611 0
66 183 -616 0
-66 183 616 0
66 -183 616 0
-66 -183 -616 0
616 611 -300 0
-616 611 300 0
616 -611 300 0
-616 -611 -300 0
611 -617 0
616 -617 0
-611 -616 617 0
183 -618 0
66 -618 0
-183 -66 618 0
-617 615 0
-618 615 0
617 618 -615 0
67 184 -620 0
-67 184 620 0
67 -184 620 0
-67 -184 -620 0
620 615 -301 0
-620 615 301 0
620 -615 301 0
-620 -615 -301 0
615 -621 0
620 -621 0
-615 -620 621 0
184 -622 0
67 -622 0
-184 -67 622 0
-621 619 0
-622 619 0
621 622 -619 0
68 185 -624 0
-68 185 624 0
68 -185 624 0
-68 -185 -624 0
624 619 -302 0
-624 619 302 0
624 -619 302 0
-624 -619 -302 0
619 -625 0
624 -625 0
-619 -624 625 0
185 -626 0
68 -626 0
-185 -68 626 0
-625 623 0
-626 623 0
625 626 -623 0
69 186 -628 0
-69 186 628 0
69 -186 628 0
-69 -186 -628 0
628 623 -303 0
-628 623 303 0
628 -623 303 0
-628 -623 -303 0
623 -629 0
628 -629 0
-623 -628 629 0
186 -630 0
69 -630 0
-186 -69 630 0
-629 627 0
-630 627 0
629 630 -627 0
70 187 -632 0
-70 187 632 0
70 -187 632 0
-70 -187 -632 0
632 627 -304 0
-632 627 304 0
632 -627 304 0
-632 -627 -304 0
627 -633 0
632 -633 0
-627 -632 633 0
187 -634 0
70 -634 0
-187 -70 634 0
-633 631 0
-634 631 0
633 634 -631 0
71 188 -636 0
-71 188 636 0
71 -188 636 0
-71 -188 -636 0
636 631 -305 0
-636 631 305 0
636 -631 305 0
-636 -631 -305 0
631 -637 0
636 -637 0
-631 -636 637 0
188 -638 0
71 -638 0
-188 -71 638 0
-637 635 0
-638 635 0
637 638 -635 0
72 189 -640 0
-72 189 640 0
72 -189 640 0
-72 -189 -640 0
640 635 -306 0
-640 635 306 0
640 -635 306 0
-640 -635 -306 0
635 -641 0
640 -641 0
-635 -640 641 0
189 -642 0
72 -642 0
-189 -72 642 0
-641 639 0
-642 639 0
641 642 -639 0
73 190 -644 0
-73 190 644 0
73 -190 644 0
-73 -190 -644 0
644 639 -307 0
-644 639 307 0
644 -639 307 0
-644 -639 -307 0
639 -645 0
644 -645 0
-639 -644 645 0
190 -646 0
73 -646 0
-190 -73 646 0
-645 643 0
-646 643 0
645 646 -643 0
74 191 -648 0
-74 191 648 0
74 -191 648 0
-74 -191 -648 0
648 643 -308 0
-648 643 308 0
648 -643 308 0
-648 -643 -308 0
643 -649 0
648 -649 0
-643 -648 649 0
191 -650 0
74 -650 0
-191 -74 650 0
-649 647 0
-650 647 0
649 650 -647 0
75 192 -652 0
-75 192 652 0
75 -192 652 0
-75 -192 -652 0
652 647 -309 0
-652 647 309 0
652 -647 309 0
-652 -647 -309 0
647 -653 0
652 -653 0
-647 -652 653 0
192 -654 0
75 -654 0
-192 -75 654 0
-653 651 0
-654 651 0
653 654 -651 0
76 193 -656 0
-76 193 656 0
76 -193 656 0
-76 -193 -656 0
656 651 -310 0
-656 651 310 0
656 -651 310 0
-656 -651 -310 0
651 -657 0
656 -657 0
-651 -656 657 0
193 -658 0
76 -658 0
-193 -76 658 0
-657 655 0
-658 655 0
657 658 -655 0
77 194 -660 0
-77 194 660 0
77 -194 660 0
-77 -194 -660 0
660 655 -311 0
-660 655 311 0
660 -655 311 0
-660 -655 -311 0
655 -661 0
660 -661 0
-655 -660 661 0
194 -662 0
77 -662 0
-194 -77 662 0
-661 659 0
-662 659 0
661 662 -659 0
78 195 -664 0
-78 195 664 0
78 -195 664 0
-78 -195 -664 0
664 659 -312 0
-664 659 312 0
664 -659 312 0
-664 -659 -312 0
659 -665 0
664 -665 0
-659 -664 665 0
195 -666 0
78 -666 0
-195 -78 666 0
-665 663 0
-666 663 0
665 666 -663 0
79 196 -668 0
-79 196 668 0
79 -196 668 0
-79 -196 -668 0
668 663 -313 0
-668 663 313 0
668 -663 313 0
-668 -663 -313 0
663 -669 0
668 -669 0
-663 -668 669 0
196 -670 0
79 -670 0
-196 -79 670 0
-669 667 0
-670 667 0
669 670 -667 0
80 197 -672 0
-80 197 672 0
80 -197 672 0
-80 -197 -672 0
672 667 -314 0
-672 667 314 0
672 -667 314 0
-672 -667 -314 0
667 -673 0
672 -673 0
-667 -672 673 0
197 -674 0
80 -674 0
-197 -80 674 0
-673 671 0
-674 671 0
673 674 -671 0
81 198 -676 0
-81 198 676 0
81 -198 676 0
-81 -198 -676 0
676 671 -315 0
-676 671 315 0
676 -671 315 0
-676 -671 -315 0
671 -677 0
676 -677 0
-671 -676 677 0
198 -678 0
81 -678 0
-198 -81 678 0
-677 675 0
-678 675 0
677 678 -675 0
82 199 -680 0
-82 199 680 0
82 -199 680 0
-82 -199 -680 0
680 675 -316 0
-680 675 316 0
680 -675 316 0
-680 -675 -316 0
675 -681 0
680 -681 0
-675 -680 681 0
199 -682 0
82 -682 0
-199 -82 682 0
-681 679 0
-682 679 0
681 682 -679 0
83 200 -684 0
-83 200 684 0
83 -200 684 0
-83 -200 -684 0
684 679 -317 0
-684 679 317 0
684 -679 317 0
-684 -679 -317 0
679 -685 0
684 -685 0
-679 -684 685 0
200 -686 0
83 -686 0
-200 -83 686 0
-685 683 0
-686 683 0
685 686 -683 0
84 201 -688 0
-84 201 688 0
84 -201 688 0
-84 -201 -688 0
688 683 -318 0
-688 683 318 0
688 -683 318 0
-688 -683 -318 0
683 -689 0
688 -689 0
-683 -688 689 0
201 -690 0
84 -690 0
-201 -84 690 0
-689 687 0
-690 687 0
689 690 -687 0
85 202 -692 0
-85 202 692 0
85 -202 692 0
-85 -202 -692 0
692 687 -319 0
-692 687 319 0
692 -687 319 0
-692 -687 -319 0
687 -693 0
692 -693 0
-687 -692 693 0
202 -694 0
85 -694 0
-202 -85 694 0
-693 691 0
-694 691 0
693 694 -691 0
86 203 -696 0
-86 203 696 0
86 -203 696 0
-86 -203 -696 0
696 691 -320 0
-696 691 320 0
696 -691 320 0
-696 -691 -320 0
691 -697 0
696 -697 0
-691 -696 697 0
203 -698 0
86 -698 0
-203 -86 698 0
-697 695 0
-698 695 0
697 698 -695 0
87 204 -700 0
-87 204 700 0
87 -204 700 0
-87 -204 -700 0
700 695 -321 0
-700 695 321 0
700 -695 321 0
-700 -695 -321 0
695 -701 0
700 -701 0
-695 -700 701 0
204 -702 0
87 -702 0
-204 -87 702 0
-701 699 0
-702 699 0
701 702 -699 0
88 205 -704 0
-88 205 704 0
88 -205 704 0
-88 -205 -704 0
704 699 -322 0
-704 699 322 0
704 -699 322 0
-704 -699 -322 0
699 -705 0
704 -705 0
-699 -704 705 0
205 -706 0
88 -706 0
-205 -88 706 0
-705 703 0
-706 703 0
705 706 -703 0
89 206 -708 0
-89 206 708 0
89 -206 708 0
-89 -206 -708 0
708 703 -323 0
-708 703 323 0
708 -703 323 0
-708 -703 -323 0
703 -709 0
708 -709 0
-703 -708 709 0
206 -710 0
89 -710 0
-206 -89 710 0
-709 707 0
-710 707 0
709 710 -707 0
90 207 -712 0
-90 207 712 0
90 -207 712 0
-90 -207 -712 0
712 707 -324 0
-712 707 324 0
712 -707 324 0
-712 -707 -324 0
707 -713 0
712 -713 0
-707 -712 713 0
207 -714 0
90 -714 0
-207 -90 714 0
-713 711 0
-714 711 0
713 714 -711 0
91 208 -716 0
-91 208 716 0
91 -208 716 0
-91 -208 -716 0
716 711 -325 0
-716 711 325 0
716 -711 325 0
-716 -711 -325 0
711 -717 0
716 -717 0
-711 -716 717 0
208 -718 0
91 -718 0
-208 -91 718 0
-717 715 0
-718 715 0
717 718 -715 0
92 209 -720 0
-92 209 720 0
92 -209 720 0
-92 -209 -720 0
720 715 -326 0
-720 715 326 0
720 -715 326 0
-720 -715 -326 0
715 -721 0
720 -721 0
-715 -720 721 0
209 -722 0
92 -722 0
-209 -92 722 0
-721 719 0
-722 719 0
721 722 -719 0
93 210 -724 0
-93 210 724 0
93 -210 724 0
-93 -210 -724 0
724 719 -327 0
-724 719 327 0
724 -719 327 0
-724 -719 -327 0
719 -725 0
724 -725 0
-719 -724 725 0
210 -726 0
93 -726 0
-210 -93 726 0
-725 723 0
-726 723 0
725 726 -723 0
94 211 -728 0
-94 211 728 0
94 -211 728 0
-94 -211 -728 0
728 723 -328 0
-728 723 328 0
728 -723 328 0
-728 -723 -328 0
723 -729 0
728 -729 0
-723 -728 729 0
211 -730 0
94 -730 0
-211 -94 730 0
-729 727 0
-730 727 0
729 730 -727 0
95 212 -732 0
-95 212 732 0
95 -212 732 0
-95 -212 -732 0
732 727 -329 0
-732 727 329 0
732 -727 329 0
-732 -727 -329 0
727 -733 0
732 -733 0
-727 -732 733 0
212 -734 0
95 -734 0
-212 -95 734 0
-733 731 0
-734 731 0
733 734 -731 0
96 213 -736 0
-96 213 736 0
96 -213 736 0
-96 -213 -736 0
736 731 -330 0
-736 731 330 0
736 -731 330 0
-736 -731 -330 0
731 -737 0
736 -737 0
-731 -736 737 0
213 -738 0
96 -738 0
-213 -96 738 0
-737 735 0
-738 735 0
737 738 -735 0
97 214 -740 0
-97 214 740 0
97 -214 740 0
-97 -214 -740 0
740 735 -331 0
-740 735 331 0
740 -735 331 0
-740 -735 -331 0
735 -741 0
740 -741 0
-735 -740 741 0
214 -742 0
97 -742 0
-214 -97 742 0
-741 739 0
-742 739 0
741 742 -739 0
98 215 -744 0
-98 215 744 0
98 -215 744 0
-98 -215 -744 0
744 739 -332 0
-744 739 332 0
744 -739 332 0
-744 -739 -332 0
739 -745 0
744 -745 0
-739 -744 745 0
215 -746 0
98 -746 0
-215 -98 746 0
-745 743 0
-746 743 0
745 746 -743 0
99 216 -748 0
-99 216 748 0
99 -216 748 0
-99 -216 -748 0
748 743 -333 0
-748 743 333 0
748 -743 333 0
-748 -743 -333 0
743 -749 0
748 -749 0
-743 -748 749 0
216 -750 0
99 -750 0
-216 -99 750 0
-749 747 0
-750 747 0
749 750 -747 0
100 217 -752 0
-100 217 752 0
100 -217 752 0
-100 -217 -752 0
752 747 -334 0
-752 747 334 0
752 -747 334 0
-752 -747 -334 0
747 -753 0
752 -753 0
-747 -752 753 0
217 -754 0
100 -754 0
-217 -100 754 0
-753 751 0
-754 751 0
753 754 -751 0
101 218 -756 0
-101 218 756 0
101 -218 756 0
-101 -218 -756 0
756 751 -335 0
-756 751 335 0
756 -751 335 0
-756 -751 -335 0
751 -757 0
756 -757 0
-751 -756 757 0
218 -758 0
101 -758 0
-218 -101 758 0
-757 755 0
-758 755 0
757 758 -755 0
102 219 -760 0
-102 219 760 0
102 -219 760 0
-102 -219 -760 0
760 755 -336 0
-760 755 336 0
760 -755 336 0
-760 -755 -336 0
755 -761 0
760 -761 0
-755 -760 761 0
219 -762 0
102 -762 0
-219 -102 762 0
-761 759 0
-762 759 0
761 762 -759 0
103 220 -764 0
-103 220 764 0
103 -220 764 0
-103 -220 -764 0
764 759 -337 0
-764 759 337 0
764 -759 337 0
-764 -759 -337 0
759 -765 0
764 -765 0
-759 -764 765 0
220 -766 0
103 -766 0
-220 -103 766 0
-765 763 0
-766 763 0
765 766 -763 0
104 221 -768 0
-104 221 768 0
104 -221 768 0
-104 -221 -768 0
768 763 -338 0
-768 763 338 0
768 -763 338 0
-768 -763 -338 0
763 -769 0
768 -769 0
-763 -768 769 0
221 -770 0
104 -770 0
-221 -104 770 0
-769 767 0
-770 767 0
769 770 -767 0
105 222 -772 0
-105 222 772 0
105 -222 772 0
-105 -222 -772 0
772 767 -339 0
-772 767 339 0
772 -767 339 0
-772 -767 -339 0
767 -773 0
772 -773 0
-767 -772 773 0
222 -774 0
105 -774 0
-222 -105 774 0
-773 771 0
-774 771 0
773 774 -771 0
106 223 -776 0
-106 223 776 0
106 -223 776 0
-106 -223 -776 0
776 771 -340 0
-776 771 340 0
776 -771 340 0
-776 -771 -340 0
771 -777 0
776 -777 0
-771 -776 777 0
223 -778 0
106 -778 0
-223 -106 778 0
-777 775 0
-778 775 0
777 778 -775 0
107 224 -780 0
-107 224 780 0
107 -224 780 0
-107 -224 -780 0
780 775 -341 0
-780 775 341 0
780 -775 341 0
-780 -775 -341 0
775 -781 0
780 -781 0
-775 -780 781 0
224 -782 0
107 -782 0
-224 -107 782 0
-781 779 0
-782 779 0
781 782 -779 0
108 225 -784 0
-108 225 784 0
108 -225 784 0
-108 -225 -784 0
784 779 -342 0
-784 779 342 0
784 -779 342 0
-784 -779 -342 0
779 -785 0
784 -785 0
-779 -784 785 0
225 -786 0
108 -786 0
-225 -108 786 0
-785 783 0
-786 783 0
785 786 -783 0
109 226 -788 0
-109 226 788 0
109 -226 788 0
-109 -226 -788 0
788 783 -343 0
-788 783 343 0
788 -783 343 0
-788 -783 -343 0
783 -789 0
788 -789 0
-783 -788 789 0
226 -790 0
109 -790 0
-226 -109 790 0
-789 787 0
-790 787 0
789 790 -787 0
110 227 -792 0
-110 227 792 0
110 -227 792 0
-110 -227 -792 0
792 787 -344 0
-792 787 344 0
792 -787 344 0
-792 -787 -344 0
787 -793 0
792 -793 0
-787 -792 793 0
227 -794 0
110 -794 0
-227 -110 794 0
-793 791 0
-794 791 0
793 794 -791 0
111 228 -796 0
-111 228 796 0
111 -228 796 0
-111 -228 -796 0
796 791 -345 0
-796 791 345 0
796 -791 345 0
-796 -791 -345 0
791 -797 0
796 -797 0
-791 -796 797 0
228 -798 0
111 -798 0
-228 -111 798 0
-797 795 0
-798 795 0
797 798 -795 0
112 229 -800 0
-112 229 800 0
112 -229 800 0
-112 -229 -800 0
800 795 -346 0
-800 795 346 0
800 -795 346 0
-800 -795 -346 0
795 -801 0
800 -801 0
-795 -800 801 0
229 -802 0
112 -802 0
-229 -112 802 0
-801 799 0
-802 799 0
801 802 -799 0
113 230 -804 0
-113 230 804 0
113 -230 804 0
-113 -230 -804 0
804 799 -347 0
-804 799 347 0
804 -799 347 0
-804 -799 -347 0
799 -805 0
804 -805 0
-799 -804 805 0
230 -806 0
113 -806 0
-230 -113 806 0
-805 803 0
-806 803 0
805 806 -803 0
114 231 -808 0
-114 231 808 0
114 -231 808 0
-114 -231 -808 0
808 803 -348 0
-808 803 348 0
808 -803 348 0
-808 -803 -348 0
803 -809 0
808 -809 0
-803 -808 809 0
231 -810 0
114 -810 0
-231 -114 810 0
-809 807 0
-810 807 0
809 810 -807 0
115 232 -812 0
-115 232 812 0
115 -232 812 0
-115 -232 -812 0
812 807 -349 0
-812 807 349 0
812 -807 349 0
-812 -807 -349 0
807 -813 0
812 -813 0
-807 -812 813 0
232 -814 0
115 -814 0
-232 -115 814 0
-813 811 0
-814 811 0
813 814 -811 0
116 233 -816 0
-116 233 816 0
116 -233 816 0
-116 -233 -816 0
816 811 -350 0
-816 811 350 0
816 -811 350 0
-816 -811 -350 0
811 -817 0
816 -817 0
-811 -816 817 0
233 -818 0
116 -818 0
-233 -116 818 0
-817 815 0
-818 815 0
817 818 -815 0
117 234 -819 0
-117 234 819 0
117 -234 819 0
-117 -234 -819 0
819 815 -351 0
-819 815 351 0
819 -815 351 0
-819 -815 -351 0
815 -820 0
819 -820 0
-815 -819 820 0
234 -821 0
117 -821 0
-234 -117 821 0
-820 352 0
-821 352 0
820 821 -352 0
